sat
(:max-memory          18.03
 :memory              17.92
 :nlsat-conflicts     1
 :nlsat-learned-added 1
 :nlsat-propagations  13
 :nlsat-stages        5
 :num-allocs          5419
 :rlimit-count        1290
 :time                0.00
 :total-time          0.01)
